1612162800
1612197000
1612249200
1612283400
1612335600
1612369800
1612422000
1612456200
1612508400
1612542600
1613372400
1613406600
1613458800
1613493000
1613545200
1613579400
1613631600
1613665800
1613718000
1613752200
1613977200
1614011400
1614063600
1614097800
1614150000
1614184200
1614236400
1614270600
